n_res = 4;
rc = [ 27, 17, 22, 21 ];
n_tasks = 30;
d = [ 2, 5, 8, 3, 4, 1, 7, 2, 3, 3, 10, 7, 2, 8, 10, 9, 6, 6, 3, 3, 10, 7, 10, 9, 9, 7, 8, 2, 7, 5 ];
rr = [| 8, 1, 0, 6, 2, 9, 6, 5, 6, 7, 6, 10, 3, 0, 0, 7, 8, 6, 1, 3, 2, 8, 9, 0, 4, 10, 5, 0, 1, 9
      | 9, 4, 1, 1, 3, 0, 0, 7, 0, 7, 6, 2, 5, 4, 4, 4, 8, 0, 9, 0, 0, 0, 0, 0, 8, 0, 10, 3, 7, 1
      | 10, 8, 6, 0, 5, 10, 2, 5, 9, 3, 9, 3, 0, 7, 0, 0, 0, 10, 7, 1, 5, 6, 6, 2, 7, 5, 9, 0, 0, 4
      | 2, 9, 3, 8, 1, 3, 5, 0, 9, 0, 0, 0, 6, 9, 8, 6, 0, 8, 3, 0, 7, 1, 4, 7, 9, 0, 1, 8, 6, 2 |];
suc = [ { 2 }, 
        { 1 }, 
        { 4 }, 
        { 3 }, 
        { 6 }, 
        { 5 }, 
        { 8 }, 
        { 7 }, 
        { 10 }, 
        { 9 }, 
        { 12 }, 
        { 11 }, 
        { 14 }, 
        { 13 }, 
        { 16 }, 
        { 15 }, 
        { 18 }, 
        { 17 }, 
        { 20 }, 
        { 19 }, 
        { 22 }, 
        { 21 }, 
        { 24 }, 
        { 23 }, 
        { 26 }, 
        { 25 }, 
        { 28 }, 
        { 27 }, 
        { 30 }, 
        { 29 }]; 
